2 30
342 247 
0 40 94 17 12 79 71 2
1 41 34 49 77 78 70 2
2 78 20 79 91 84 17 1
3 78 93 55 40 87 54 2
4 20 38 88 89 2 56 2
5 67 36 76 90 38 70 2
6 92 39 48 66 48 91 1
7 82 66 14 4 89 3 2
8 97 99 57 66 90 59 2
9 53 68 21 23 19 80 1
10 45 94 38 40 88 73 2
11 1 93 66 4 56 98 2
12 73 62 34 5 28 88 1
13 20 50 61 89 95 100 1
14 85 71 58 5 44 44 1
15 22 51 75 73 54 83 2
16 48 71 1 58 3 6 1
17 36 18 73 13 49 99 2
18 65 99 1 14 85 84 2
19 60 44 48 11 9 90 2
20 56 39 52 46 6 7 1
21 77 74 38 32 80 89 2
22 62 62 7 13 96 69 1
23 14 29 7 11 56 2 1
24 39 31 84 49 97 45 1
25 57 6 29 21 38 17 1
26 2 92 23 27 49 39 2
27 10 58 78 96 75 93 1
28 32 4 37 26 40 92 1
29 11 77 19 48 88 30 1
